minizinc/sudoku_problems2/sudoku_p14.dzn
%
% sudoku_p14.dzn
% See http://www.hakank.org/minizinc/sudoku_gcc.mzn
% 
% This problem is problem 14 from
% Gecode's sudoku.cpp
% http://www.gecode.org/gecode-doc-latest/sudoku_8cpp-source.html
% 
x = array2d(1..n, 1..n, [   
% Puzzle 9 from http://www.sudoku.org.uk/bifurcation.htm
% 14
  _,  _,  6,  _,  _,  2,  _,  _,  9,
  1,  _,  _,  5,  _,  _,  _,  2,  _,
  _,  4,  7,  3,  _,  6,  _,  _,  1,
  _,  _,  _,  _,  _,  8,  _,  4,  _,
  _,  3,  _,  _,  _,  _,  _,  7,  _,
  _,  1,  _,  6,  _,  _,  _,  _,  _,
  4,  _,  _,  8,  _,  3,  2,  1,  _,
  _,  6,  _,  _,  _,  1,  _,  _,  4,
  3,  _,  _,  4,  _,  _,  9,  _,  _
]);

n = 9;


